
******************************************************************************
This program contains Ipopt, a library for large-scale nonlinear optimization.
 Ipopt is released as open source code under the Eclipse Public License (EPL).
         For more information visit http://projects.coin-or.org/Ipopt
******************************************************************************

This is Ipopt version 3.12.3, running with linear solver mumps.
NOTE: Other linear solvers might be more efficient (see Ipopt documentation).

Number of nonzeros in equality constraint Jacobian...:     1811
Number of nonzeros in inequality constraint Jacobian.:        1
Number of nonzeros in Lagrangian Hessian.............:        0

Total number of variables............................:      101
                     variables with only lower bounds:        0
                variables with lower and upper bounds:      101
                     variables with only upper bounds:        0
Total number of equality constraints.................:       87
Total number of inequality constraints...............:        1
        inequality constraints with only lower bounds:        0
   inequality constraints with lower and upper bounds:        1
        inequality constraints with only upper bounds:        0

iter    objective    inf_pr   inf_du lg(mu)  ||d||  lg(rg) alpha_du alpha_pr  ls
   0 -8.3333333e-01 5.83e+01 4.09e-02   0.0 0.00e+00    -  0.00e+00 0.00e+00   0
   1 -7.7716090e-01 9.71e+00 1.76e+01  -0.9 4.06e-01    -  7.07e-01 9.90e-01h  1
   2 -7.8152390e-01 2.69e-01 2.88e+00  -1.5 1.42e-01    -  1.00e+00 9.90e-01h  1
   3 -7.8687651e-01 1.21e-01 1.73e-01  -2.7 2.67e-02    -  1.00e+00 1.00e+00h  1
   4 -8.3579253e-01 2.60e+01 2.00e+02  -3.2 3.55e-01    -  9.97e-01 1.00e+00h  1
   5 -8.2567141e-01 2.16e+00 6.49e-01  -2.9 1.87e-01    -  1.00e+00 1.00e+00h  1
   6 -8.2930533e-01 2.44e+00 8.19e-01  -3.3 1.13e-01    -  1.00e+00 1.00e+00h  1
   7 -8.2828853e-01 1.80e+01 1.09e+00  -2.7 3.14e-01    -  1.00e+00 1.00e+00h  1
   8 -8.2779759e-01 4.91e+00 1.83e-01  -2.8 1.87e-01    -  1.00e+00 1.00e+00h  1
   9 -8.2573242e-01 9.94e-01 1.14e-01  -2.8 8.03e-02    -  1.00e+00 1.00e+00h  1
iter    objective    inf_pr   inf_du lg(mu)  ||d||  lg(rg) alpha_du alpha_pr  ls
  10 -8.2959272e-01 1.64e+00 1.04e-01  -3.4 8.41e-02    -  1.00e+00 1.00e+00h  1
  11 -8.2946263e-01 5.49e-01 1.19e-01  -4.3 5.33e-02    -  1.00e+00 1.00e+00h  1
  12 -8.2991706e-01 5.06e-01 4.46e-02  -4.6 6.62e-02    -  1.00e+00 1.00e+00h  1
  13 -8.2985923e-01 2.27e-01 4.83e-02  -5.2 3.40e-02    -  1.00e+00 1.00e+00h  1
  14 -8.2973279e-01 7.32e-02 1.38e-02  -5.5 1.32e-02    -  1.00e+00 1.00e+00h  1
  15 -8.2967596e-01 6.63e-03 5.22e-03  -7.0 9.98e-03    -  1.00e+00 1.00e+00h  1
  16 -8.2969755e-01 2.88e-02 1.92e-02  -8.2 2.04e-02    -  1.00e+00 1.00e+00h  1
  17 -8.2970420e-01 5.02e-02 3.43e-02  -8.6 1.72e-02    -  1.00e+00 1.00e+00h  1
  18 -8.2971547e-01 3.02e-02 5.43e-03  -7.4 1.71e-02    -  1.00e+00 1.00e+00h  1
  19 -8.2968502e-01 2.48e-04 3.09e-03  -9.1 9.40e-04    -  1.00e+00 1.00e+00h  1
iter    objective    inf_pr   inf_du lg(mu)  ||d||  lg(rg) alpha_du alpha_pr  ls
  20 -8.2968487e-01 5.42e-05 4.17e-04 -11.0 3.68e-04    -  1.00e+00 1.00e+00h  1

Number of Iterations....: 20

                                   (scaled)                 (unscaled)
Objective...............:  -8.2968487432170712e-01   -8.2968487432170712e-01
Dual infeasibility......:   4.1665404937354559e-04    4.1665404937354559e-04
Constraint violation....:   1.3076307618142561e-05    5.4152997495782174e-05
Complementarity.........:   1.9686875825922433e-11    1.9686875825922433e-11
Overall NLP error.......:   4.1665404937354559e-04    4.1665404937354559e-04


Number of objective function evaluations             = 21
Number of objective gradient evaluations             = 21
Number of equality constraint evaluations            = 21
Number of inequality constraint evaluations          = 21
Number of equality constraint Jacobian evaluations   = 21
Number of inequality constraint Jacobian evaluations = 21
Number of Lagrangian Hessian evaluations             = 0
Total CPU secs in IPOPT (w/o function evaluations)   =      0.071
Total CPU secs in NLP function evaluations           =      0.056

EXIT: Optimal Solution Found.
